homework/2/sat_in/bonus/20.wcnf
p wcnf 7 15 8
1 -1 0
1 -2 0
1 -3 0
1 -4 0
1 -5 0
1 -6 0
1 -7 0
8 1 4 0
8 1 7 0
8 2 7 0
8 3 4 0
8 3 6 0
8 3 7 0
8 5 7 0
8 6 7 0
