homework/2/sat_in/task3/20.cnf
p cnf 28 184
1 2 3 4 5 6 7 0
-1 -2 0
-1 -3 0
-1 -4 0
-1 -5 0
-1 -6 0
-1 -7 0
-2 -3 0
-2 -4 0
-2 -5 0
-2 -6 0
-2 -7 0
-3 -4 0
-3 -5 0
-3 -6 0
-3 -7 0
-4 -5 0
-4 -6 0
-4 -7 0
-5 -6 0
-5 -7 0
-6 -7 0
8 9 10 11 12 13 14 0
-8 -9 0
-8 -10 0
-8 -11 0
-8 -12 0
-8 -13 0
-8 -14 0
-9 -10 0
-9 -11 0
-9 -12 0
-9 -13 0
-9 -14 0
-10 -11 0
-10 -12 0
-10 -13 0
-10 -14 0
-11 -12 0
-11 -13 0
-11 -14 0
-12 -13 0
-12 -14 0
-13 -14 0
15 16 17 18 19 20 21 0
-15 -16 0
-15 -17 0
-15 -18 0
-15 -19 0
-15 -20 0
-15 -21 0
-16 -17 0
-16 -18 0
-16 -19 0
-16 -20 0
-16 -21 0
-17 -18 0
-17 -19 0
-17 -20 0
-17 -21 0
-18 -19 0
-18 -20 0
-18 -21 0
-19 -20 0
-19 -21 0
-20 -21 0
22 23 24 25 26 27 28 0
-22 -23 0
-22 -24 0
-22 -25 0
-22 -26 0
-22 -27 0
-22 -28 0
-23 -24 0
-23 -25 0
-23 -26 0
-23 -27 0
-23 -28 0
-24 -25 0
-24 -26 0
-24 -27 0
-24 -28 0
-25 -26 0
-25 -27 0
-25 -28 0
-26 -27 0
-26 -28 0
-27 -28 0
-1 -8 0
-1 -15 0
-1 -22 0
-8 -15 0
-8 -22 0
-15 -22 0
-2 -9 0
-2 -16 0
-2 -23 0
-9 -16 0
-9 -23 0
-16 -23 0
-3 -10 0
-3 -17 0
-3 -24 0
-10 -17 0
-10 -24 0
-17 -24 0
-4 -11 0
-4 -18 0
-4 -25 0
-11 -18 0
-11 -25 0
-18 -25 0
-5 -12 0
-5 -19 0
-5 -26 0
-12 -19 0
-12 -26 0
-19 -26 0
-6 -13 0
-6 -20 0
-6 -27 0
-13 -20 0
-13 -27 0
-20 -27 0
-7 -14 0
-7 -21 0
-7 -28 0
-14 -21 0
-14 -28 0
-21 -28 0
-1 -11 0
-8 -4 0
-1 -18 0
-15 -4 0
-1 -25 0
-22 -4 0
-8 -18 0
-15 -11 0
-8 -25 0
-22 -11 0
-15 -25 0
-22 -18 0
-1 -14 0
-8 -7 0
-1 -21 0
-15 -7 0
-1 -28 0
-22 -7 0
-8 -21 0
-15 -14 0
-8 -28 0
-22 -14 0
-15 -28 0
-22 -21 0
-2 -14 0
-9 -7 0
-2 -21 0
-16 -7 0
-2 -28 0
-23 -7 0
-9 -21 0
-16 -14 0
-9 -28 0
-23 -14 0
-16 -28 0
-23 -21 0
-3 -11 0
-10 -4 0
-3 -18 0
-17 -4 0
-3 -25 0
-24 -4 0
-10 -18 0
-17 -11 0
-10 -25 0
-24 -11 0
-17 -25 0
-24 -18 0
-3 -13 0
-10 -6 0
-3 -20 0
-17 -6 0
-3 -27 0
-24 -6 0
-10 -20 0
-17 -13 0
-10 -27 0
-24 -13 0
-17 -27 0
-24 -20 0
-3 -14 0
-10 -7 0
-3 -21 0
-17 -7 0
-3 -28 0
-24 -7 0
-10 -21 0
-17 -14 0
-10 -28 0
-24 -14 0
-17 -28 0
-24 -21 0
-5 -14 0
-12 -7 0
-5 -21 0
-19 -7 0
-5 -28 0
-26 -7 0
-12 -21 0
-19 -14 0
-12 -28 0
-26 -14 0
-19 -28 0
-26 -21 0
-6 -14 0
-13 -7 0
-6 -21 0
-20 -7 0
-6 -28 0
-27 -7 0
-13 -21 0
-20 -14 0
-13 -28 0
-27 -14 0
-20 -28 0
-27 -21 0
